5 5
  0     40.0     50.0       0.0     3390.0      0.0       0.0       0.0  
  1     52.0     75.0      311.0     471.0      90.0       10.0      0.0  
  2     45.0     70.0      213.0     373.0      90.0      30.0      0.0  
  3     62.0     69.0      1167.0    1327.0     90.0       10.0      0.0  
  4     60.0     66.0      1261.0    1421.0     90.0       0.0      20.0  
  5     42.0     65.0      25.0      185.0      90.0       0.0      10.0  